NAME: pr1002.tour
COMMENT: Best tour for pr1002.tsp (270094.0)
TYPE: TOUR
DIMENSION: 1002
TOUR_SECTION
49
42
43
44
313
316
315
326
325
324
319
318
317
320
323
322
321
294
293
295
296
289
290
291
292
402
403
408
409
380
379
381
382
401
399
400
396
397
398
335
336
337
338
342
343
346
347
348
349
353
352
351
350
345
344
341
339
340
391
390
392
394
395
384
383
385
386
387
393
389
388
368
367
366
365
364
363
362
361
360
359
358
354
357
355
356
660
661
662
656
655
657
658
659
642
654
652
653
643
644
647
651
650
649
648
646
645
639
638
640
641
373
372
371
370
369
378
377
376
375
374
637
636
635
634
633
992
625
626
628
627
612
613
614
615
616
624
623
622
621
620
619
618
617
730
731
732
751
752
753
754
755
747
746
748
750
749
733
744
745
743
742
741
740
739
738
734
735
736
737
708
709
714
715
721
717
716
707
705
698
697
706
696
695
694
693
692
691
690
689
688
718
719
720
722
723
712
711
713
710
729
727
728
724
725
726
663
664
665
668
667
666
670
669
671
672
673
679
678
677
674
675
676
682
681
680
687
686
685
683
684
988
989
990
984
983
985
986
987
970
971
972
981
982
980
975
974
973
976
979
978
977
950
949
951
952
948
947
946
945
944
943
942
941
940
955
956
954
953
993
961
962
963
964
965
966
967
968
969
701
700
699
704
703
702
765
764
763
1000
759
758
757
756
789
790
791
792
794
793
788
787
786
785
784
783
781
760
761
762
774
775
773
772
771
770
768
766
767
769
960
959
958
957
939
938
937
936
935
934
933
932
931
930
929
928
926
927
925
924
923
885
884
883
882
881
880
879
878
876
870
871
872
869
867
866
865
864
863
861
859
860
862
856
855
854
857
853
858
1002
852
851
850
849
848
845
844
843
842
897
898
896
894
895
846
847
893
892
874
873
868
875
877
890
891
889
888
886
887
920
921
922
918
917
916
904
905
906
903
901
902
919
900
899
907
908
909
915
914
910
911
912
913
777
776
778
779
780
782
803
802
801
795
796
797
798
799
800
804
805
808
807
806
1001
809
810
811
821
822
820
812
813
815
841
840
839
838
837
836
835
830
831
834
833
832
829
826
827
828
817
816
814
818
819
823
824
825
552
551
550
549
546
547
548
542
543
544
541
540
545
539
538
537
536
535
533
531
532
534
528
527
526
529
525
522
521
520
518
519
565
564
563
562
561
560
558
559
557
556
553
554
555
595
599
597
596
594
593
592
591
590
589
588
598
600
601
602
603
604
605
606
607
608
609
610
611
629
630
631
632
441
439
438
440
442
443
444
446
445
447
434
433
432
457
456
455
453
452
451
450
448
449
585
586
587
581
582
583
584
454
475
474
473
459
458
460
465
466
464
463
462
461
428
429
430
431
997
435
436
437
413
412
411
416
414
415
417
410
407
406
405
421
422
420
418
419
427
426
425
424
423
404
288
287
286
285
284
299
300
298
297
991
305
306
307
308
309
310
311
312
45
48
47
46
109
108
107
994
103
104
105
106
118
119
117
116
115
114
112
110
111
113
304
303
302
301
283
282
281
280
279
278
277
276
275
467
468
469
470
471
472
476
477
480
479
478
998
580
579
578
577
576
575
573
574
572
571
570
514
569
568
566
567
517
516
515
523
524
530
999
510
509
508
507
506
505
504
503
502
501
498
499
500
489
488
511
512
513
487
486
485
490
491
492
484
482
481
483
493
494
495
496
497
227
228
229
265
266
267
268
269
271
272
273
274
270
260
261
262
247
248
249
250
252
251
243
244
245
246
263
264
231
232
230
226
225
224
223
222
221
234
233
235
236
237
190
191
218
219
220
214
215
213
216
217
212
211
210
209
208
207
205
206
204
203
201
198
200
199
197
194
193
192
189
188
239
238
240
242
241
186
187
195
196
202
996
182
183
184
185
159
181
180
179
178
177
176
175
174
173
170
171
172
161
160
158
162
157
156
164
163
167
168
169
166
165
155
154
153
152
151
149
150
995
253
254
255
256
259
258
257
121
120
122
123
124
125
127
126
147
145
146
148
144
143
142
141
140
139
138
137
132
131
130
129
128
102
101
100
133
134
135
136
95
96
97
98
99
91
92
94
93
77
79
78
88
89
90
87
86
85
84
83
82
80
74
75
76
1
2
5
3
4
6
7
8
9
10
11
12
70
69
68
72
71
73
54
81
52
53
51
60
61
65
59
58
57
55
56
67
66
64
63
62
32
24
25
23
22
17
16
13
14
15
18
21
19
20
26
31
30
29
27
28
332
333
334
328
327
329
330
331
314
36
35
33
34
37
38
39
40
50
41
-1
EOF